26474.0
6, 10, 13, 23, 32, 36, 37, 38, 48, 53, 60, 121, 134, 137, 146, 151, 216, 231, 249, 254, 262, 269, 273, 281, 287, 299, 334, 347, 349, 379, 382, 419, 421, 426, 440, 446, 463, 469, 473, 476, 493, 494